
Gurobi 6.5.2 (win64) logging started 07/22/16 22:02:40


Gurobi 6.5.2 (win64) logging started 07/22/16 22:02:40

Optimize a model with 4157 rows, 800 columns and 10284 nonzeros
Coefficient statistics:
  Matrix range    [6e-08, 1e+03]
  Objective range [1e+00, 1e+00]
  Bounds range    [1e+00, 1e+00]
  RHS range       [6e-06, 2e+03]
Presolve removed 3893 rows and 532 columns
Presolve time: 0.00s
Presolved: 264 rows, 268 columns, 1117 nonzeros
Variable types: 268 continuous, 0 integer (0 binary)

Root relaxation: objective 1.974542e+02, 298 iterations, 0.00 seconds

    Nodes    |    Current Node    |     Objective Bounds      |     Work
 Expl Unexpl |  Obj  Depth IntInf | Incumbent    BestBd   Gap | It/Node Time

*    0     0               0     197.4541771  197.45418  0.00%     -    0s

Explored 0 nodes (298 simplex iterations) in 0.09 seconds
Thread count was 8 (of 8 available processors)

Optimal solution found (tolerance 1.00e-04)
Best objective 1.974541771485e+02, best bound 1.974541771485e+02, gap 0.0%

Wrote requested result file 'H1\instance27\\Results27EC_Sol2.lp'

